c random formula
p cnf 10 30
-5 -10 0
-7 -3 0
6 -1 0
8 -7 0
4 -6 0
1 9 0
-2 3 0
6 10 0
-3 -10 0
-7 -10 0
10 -5 0
8 -9 0
-4 -7 0
9 6 0
2 -4 0
-10 -4 0
-2 5 0
-1 -6 0
7 -4 0
8 -7 0
10 -8 0
2 1 0
4 9 0
-7 -9 0
9 -3 0
4 7 0
-8 -5 0
8 2 0
10 3 0
7 -8 0
